coords = array2d(1..64, 1..2, [867, 735, 674, 241, 142, 426, 562, 870, 302,
    879, 284, 503, 422, 635, 667, 667, 345, 146, 156, 777, 649, 952,
    397, 57, 147, 205, 464, 621, 896, 486, 299, 428, 197, 846, 388,
    303, 754, 655, 934, 199, 501, 646, 6, 134, 202, 193, 129, 584,
    285, 739, 833, 432, 983, 466, 455, 431, 992, 942, 468, 132, 226,
    655, 338, 212, 60, 837, 449, 864, 82, 310, 892, 587, 161, 648,
    376, 610, 323, 968, 209, 991, 968, 408, 945, 153, 855, 622, 536,
    278, 411, 996, 744, 125, 748, 877, 91, 864, 772, 143, 695, 547,
    334, 493, 846, 953, 943, 704, 241, 50, 982, 904, 464, 106, 475,
    602, 200, 901, 310, 260, 44, 459, 206, 541, 910, 13, 821, 807,
    439, 265]);

n = 64;

